(set-info :smt-lib-version 2.7)
(set-logic QF_NIA)
(set-info :source  | 
Generated by: Johannes Bauer
Generated on: 2026-06-18
Generator: mgm A12 Test Data Generator
Application: ELSTER
Target solver: Z3, Yices2, CVC5
Script is based on the ELSTER form: capital gains tax registration (A / KapEStInvStG)
Characteristic of the form: easy.
In this script, all terms of the form (* x1 x2 x3 ...) are in the form (* x1 c2 c3 ...),
all terms of the form (div x y) are in the form (div x c) and the symbol mod is exclusively used in the form (mod x c),
where x, y, and x1, x2, x3 ... are free constants and c, c2, c3 ... are terms in the form n or (-n) for some numeral n.
The script starts with the base constraints, which define a valid data set for the corresponding form. After the first (push 1), control constraints follow.
The goal of the control constraints in this script is to fill up a data set with values, after the characteristics of the high test coverage were placed.
number variables: 43, number constraints: 42
"https://www.elster.de/eportal/start?locale=en_US"
"https://www.mgm-tp.com/q12-tdg.html"
"https://a12.ai/public-sector"
|)
(set-info :license "https://creativecommons.org/licenses/by/4.0/")
(set-info :category "industrial")
(set-info :major-phase |variable declarations|)
(declare-fun I1 () Int)
(declare-fun I2 () Int)
(declare-fun I3 () Int)
(declare-fun I4 () Int)
(declare-fun I5 () Int)
(declare-fun I6 () Int)
(declare-fun I7-s-y () Int)
(declare-fun I7-s-m () Int)
(declare-fun I7-s-d () Int)
(declare-fun I7-e-y () Int)
(declare-fun I7-e-m () Int)
(declare-fun I7-e-d () Int)
(declare-fun I8 () Int)
(declare-fun I9 () Int)
(declare-fun I10 () Int)
(declare-fun I11 () Int)
(declare-fun I12 () Int)
(declare-fun I13 () Int)
(declare-fun I14-s-y () Int)
(declare-fun I14-s-m () Int)
(declare-fun I14-s-d () Int)
(declare-fun I14-e-y () Int)
(declare-fun I14-e-m () Int)
(declare-fun I14-e-d () Int)
(declare-fun I15 () Int)
(declare-fun I16 () Int)
(declare-fun I17 () Int)
(declare-fun I18 () Int)
(declare-fun I19 () Int)
(declare-fun I20 () Int)
(declare-fun I21 () Int)
(declare-fun I22 () Int)
(declare-fun I23 () Int)
(declare-fun I24 () Int)
(declare-fun I25 () Int)
(declare-fun I26 () Int)
(declare-fun I27 () Int)
(declare-fun I28 () Int)
(declare-fun B29-F () Bool)
(declare-fun I30 () Int)
(declare-fun B31-F () Bool)
(declare-fun B32-F () Bool)
(declare-fun B33-F () Bool)
(set-info :major-phase |base constraints|)
(set-info :base-constraint-type ||)
(assert (= 1 (+ I2 I4 I6 I9 I11 I13 I16 I18 I20 I22 I24 I26 1)))
(set-info :base-constraint-type |constraints defining hierarchy (group is filled, if a child is filled)|)
(assert (= B31-F (or B32-F B33-F)))
(set-info :base-constraint-type |domainconstraints number-fields|)
(assert (= I27 0))
(assert (= I28 0))
(assert (= I1 0))
(assert (= I2 0))
(assert (= I3 0))
(assert (= I4 0))
(assert (= I5 0))
(assert (= I6 0))
(assert (= I21 0))
(assert (= I22 0))
(assert (= I23 0))
(assert (= I24 0))
(assert (= I25 0))
(assert (= I26 0))
(assert (= I8 0))
(assert (= I9 0))
(assert (= I10 0))
(assert (= I11 0))
(assert (= I12 0))
(assert (= I13 0))
(assert (= I15 0))
(assert (= I16 0))
(assert (= I17 0))
(assert (= I18 0))
(assert (= I19 0))
(assert (= I20 0))
(assert (ite B29-F true false))
(assert (and (<= I30 99999999999999) (>= I30 (- 9999999999999))))
(set-info :base-constraint-type |domainconstraints date-fields|)
(assert (or (< I7-s-y I7-e-y) (and (= I7-s-y I7-e-y) (< I7-s-m I7-e-m)) (and (= I7-s-y I7-e-y) (= I7-s-m I7-e-m) (<= I7-s-d I7-e-d))))
(assert (or (< I14-s-y I14-e-y) (and (= I14-s-y I14-e-y) (< I14-s-m I14-e-m)) (and (= I14-s-y I14-e-y) (= I14-s-m I14-e-m) (<= I14-s-d I14-e-d))))
(set-info :base-constraint-type |constraints from validation-rules|)
(assert (not (and (or B33-F B32-F) (not (and B33-F B32-F)))))
(assert (not (distinct 1 (+ I2 I4 I6 I9 I11 I13 I16 I18 I20 I22 I24 I26 1))))
(assert (not (distinct 66779170120238 (+ I30 69999999946136))))
(set-info :major-phase |control constraints|)
(push 1)
(assert B29-F)
(set-info :status sat)
(check-sat)
(push 1)
(assert B33-F)
(set-info :status sat)
(check-sat)
(push 1)
(assert B32-F)
(set-info :status sat)
(check-sat)
(exit)

